ACES POSCAR
1.0
1.21009352602 4.27695068404 -2.1e-13
-6.91134839414 4.26511691235 -0.069320152227
-2.89491192554 0.819068172287 10.6394026495
Bi I
4 4
Direct
0.818842986921 0.362314041158 0.00934404345005
0.197294819536 0.605410375928 0.275613067165
0.802705195464 0.394589624072 0.724386932835
0.181157028079 0.637685958842 0.99065598355
0.5505945568 0.898810886401 0.215974622992
0.4494054432 0.101189113599 0.784025406008
0.156959728545 0.68608052791 0.635066440337
0.843040256455 0.31391947209 0.364933529663
